dimacs_exports/research_5vars_10clauses_seed100.cnf
c DIMACS CNF format
c Generated from: research_5vars_10clauses_seed100.md
c Batch export from 
c Generated on: 2025-07-15T10:21:56.961
c
p cnf 5 10
1 3 1 0
-5 3 4 0
2 -2 5 0
4 -4 -4 0
-3 1 4 0
-4 -3 2 0
-2 2 -4 0
-2 -5 -1 0
1 4 -4 0
-3 -1 1 0
