research/research_5vars_10clauses_seed100.txt
7 8 3
7 10 1
2 10 1
3 9 1
2 6 1
3 4 2
4 9 1
1 8 1
1 2 1
3 8 2
1 6 2
5 10 1
1 7 2
3 6 1
6 8 1
1 5 2
4 8 1
4 10 1
5 7 1
2 4 1
6 7 1